NAME : instances/clustered-mixed-tsp/instance-9.tsp
COMMENT : No Comment
TYPE : TSP
DIMENSION: 42
EDGE_WEIGHT_TYPE : EUC_2D
NODE_COORD_SECTION
1 596 1037 
2 442 719 
3 572 447 
4 69 485 
5 251 303 
6 -71 485 
7 617 412 
8 1156 1051 
9 894 209 
10 652 971 
11 414 435 
12 -1 583 
13 589 76 
14 1002 421 
15 127 552 
16 1002 915 
17 610 771 
18 820 785 
19 238 872 
20 51 -24 
21 -47 242 
22 1020 447 
23 1104 587 
24 554 747 
25 -252 228 
26 491 188 
27 348 111 
28 463 -120 
29 988 813 
30 -84 522 
31 474 783 
32 750 1195 
33 736 1013 
34 643 877 
35 242 251 
36 98 340 
37 1030 729 
38 -126 438 
39 345 46 
40 540 673 
41 876 477 
42 406 158 
EOF
